1 100 452
4 3 5 5 2 2 2 1 1 6
2
3 3
0 35.0 35.0 0.0 0.0 0 230
2 41.0 49.0 10.0 10.0 0 204 71 0 0 0 1 0 0 1 0 0 1
3 35.0 17.0 10.0 7.0 0 202 57 0 0 0 0 0 0 0 1 0 0
4 55.0 45.0 10.0 13.0 0 197 53 0 0 0 0 0 0 0 1 1 0
5 55.0 20.0 10.0 19.0 139 169 58 0 0 0 1 0 0 1 0 0 0
6 15.0 30.0 10.0 26.0 0 199 55 1 1 0 1 0 0 0 0 0 1
7 25.0 30.0 10.0 3.0 0 208 25 1 0 0 0 0 0 0 0 0 0
8 20.0 50.0 10.0 5.0 0 198 44 0 0 0 0 0 1 0 0 0 0
9 10.0 43.0 10.0 9.0 85 115 13 0 0 0 1 0 0 1 0 0 0
10 55.0 60.0 10.0 16.0 87 117 77 0 1 0 0 0 0 0 0 0 0
11 30.0 60.0 10.0 16.0 0 194 46 0 0 0 1 0 0 0 0 0 0
12 20.0 65.0 10.0 12.0 57 87 94 0 0 0 0 0 0 0 0 0 1
13 50.0 35.0 10.0 19.0 0 205 0 0 0 0 0 1 1 0 0 1 0
14 30.0 25.0 10.0 23.0 149 179 46 0 0 0 0 0 1 0 0 0 0
15 15.0 10.0 10.0 20.0 0 187 18 0 0 0 0 0 1 0 0 0 0
16 30.0 5.0 10.0 8.0 51 81 55 0 0 0 0 0 1 0 0 0 0
17 10.0 20.0 10.0 19.0 0 190 8 1 0 0 0 0 0 0 1 0 1
18 5.0 30.0 10.0 2.0 0 189 61 0 0 0 1 0 0 0 0 0 0
19 20.0 40.0 10.0 12.0 0 204 54 1 0 0 0 0 1 0 0 0 1
20 15.0 60.0 10.0 17.0 0 187 79 0 0 1 1 0 0 0 1 0 0
21 45.0 65.0 10.0 9.0 0 188 88 0 0 0 0 0 0 0 1 0 0
22 45.0 20.0 10.0 11.0 0 201 6 0 1 0 0 0 0 0 0 0 0
23 45.0 10.0 10.0 18.0 0 193 47 0 0 0 0 1 0 1 1 0 1
24 55.0 5.0 10.0 29.0 58 88 88 0 0 0 0 0 0 0 0 1 1
25 65.0 35.0 10.0 3.0 0 190 56 1 0 0 0 1 0 0 0 1 0
26 65.0 20.0 10.0 6.0 156 186 86 0 0 1 0 0 1 0 0 0 0
27 45.0 30.0 10.0 17.0 0 208 3 0 1 1 0 0 0 1 0 0 0
28 35.0 40.0 10.0 16.0 0 215 32 0 0 0 0 0 0 0 0 0 1
29 41.0 37.0 10.0 16.0 0 213 59 0 1 1 0 0 1 0 0 0 0
30 64.0 42.0 10.0 9.0 0 190 98 0 0 0 0 0 1 0 0 0 0
31 40.0 60.0 10.0 21.0 0 194 91 0 1 0 0 1 0 0 1 0 1
32 31.0 52.0 10.0 27.0 0 202 3 0 1 1 0 0 0 0 0 0 0
33 35.0 69.0 10.0 23.0 0 186 96 0 0 0 0 1 1 0 0 0 1
34 53.0 52.0 10.0 11.0 0 195 60 0 0 1 0 0 0 0 0 0 0
35 65.0 55.0 10.0 14.0 0 183 32 1 0 1 0 0 0 0 0 0 1
36 63.0 65.0 10.0 8.0 0 178 66 0 0 0 0 1 0 0 0 0 1
37 2.0 60.0 10.0 5.0 0 178 97 0 0 0 0 0 1 0 0 0 0
38 20.0 20.0 10.0 8.0 0 198 75 1 0 0 0 1 0 0 1 0 0
39 5.0 5.0 10.0 16.0 73 103 42 0 1 1 0 0 0 0 0 0 0
40 60.0 12.0 10.0 31.0 0 186 9 0 0 1 0 0 1 0 0 0 0
41 40.0 25.0 10.0 9.0 0 208 33 0 0 1 0 0 1 1 0 1 0
42 42.0 7.0 10.0 5.0 0 191 18 0 0 1 0 1 0 0 0 0 0
43 24.0 12.0 10.0 5.0 0 194 65 0 1 0 0 0 0 0 0 0 0
44 23.0 3.0 10.0 7.0 0 185 56 1 1 0 0 0 0 0 0 0 0
45 11.0 14.0 10.0 18.0 59 89 60 0 0 0 0 0 0 0 0 0 1
46 6.0 38.0 10.0 16.0 0 190 72 0 1 0 1 0 0 0 0 0 0
47 2.0 48.0 10.0 1.0 0 184 43 1 0 0 0 0 0 0 1 1 0
48 8.0 56.0 10.0 27.0 0 185 16 0 1 0 0 0 1 0 1 0 0
49 13.0 52.0 10.0 36.0 0 192 66 0 0 0 0 0 1 1 0 0 1
50 6.0 68.0 10.0 30.0 0 176 57 0 1 1 1 0 1 0 0 0 1
51 47.0 47.0 10.0 13.0 0 203 84 0 0 0 1 0 1 0 0 0 0
52 49.0 58.0 10.0 10.0 0 193 6 0 0 0 1 1 1 1 0 0 1
53 27.0 43.0 10.0 9.0 0 208 93 1 0 0 0 0 0 0 1 0 0
54 37.0 31.0 10.0 14.0 85 115 93 1 0 0 0 0 1 1 0 0 0
55 57.0 29.0 10.0 18.0 0 197 46 0 0 0 0 0 0 0 1 0 0
56 63.0 23.0 10.0 2.0 126 156 69 0 1 0 1 0 0 0 1 1 0
57 53.0 12.0 10.0 6.0 0 190 43 0 0 0 1 0 1 0 0 0 1
58 32.0 12.0 10.0 7.0 0 196 86 0 0 1 0 0 1 0 0 0 1
59 36.0 26.0 10.0 18.0 180 210 52 0 0 0 0 1 0 1 0 0 0
60 21.0 24.0 10.0 28.0 0 202 33 0 1 1 1 1 0 0 0 0 0
61 17.0 34.0 10.0 3.0 0 201 12 0 0 1 0 0 0 0 0 0 1
62 12.0 24.0 10.0 13.0 0 194 31 1 0 0 0 0 0 0 0 0 0
63 24.0 58.0 10.0 19.0 48 78 77 0 0 0 0 0 1 0 0 0 0
64 27.0 69.0 10.0 10.0 0 185 64 0 0 0 0 0 1 0 0 0 0
65 15.0 77.0 10.0 9.0 0 173 23 0 1 0 0 1 0 1 0 0 0
66 62.0 77.0 10.0 20.0 0 170 71 0 0 0 0 0 1 0 0 0 0
67 49.0 73.0 10.0 25.0 0 179 89 0 0 0 0 0 0 0 1 0 1
68 67.0 5.0 10.0 25.0 73 103 72 0 0 0 0 0 0 0 0 1 1
69 56.0 39.0 10.0 36.0 0 198 33 0 1 0 0 0 0 0 0 0 0
70 37.0 47.0 10.0 6.0 40 70 49 0 0 0 0 1 0 0 0 0 0
71 37.0 56.0 10.0 5.0 0 198 49 0 1 0 0 0 0 0 0 1 0
72 57.0 68.0 10.0 15.0 0 180 60 0 0 0 0 0 1 0 0 1 0
73 47.0 16.0 10.0 25.0 0 197 68 0 1 0 0 0 0 0 0 0 0
74 44.0 17.0 10.0 9.0 0 199 54 0 0 0 0 0 0 0 0 1 0
75 46.0 13.0 10.0 8.0 139 169 93 0 0 0 0 1 1 0 0 0 1
76 49.0 11.0 10.0 18.0 0 192 16 0 0 0 0 0 0 0 0 0 1
77 49.0 42.0 10.0 13.0 63 93 27 1 0 0 1 0 0 0 0 0 0
78 53.0 43.0 10.0 14.0 169 199 86 0 0 0 0 0 1 0 0 0 0
79 61.0 52.0 10.0 3.0 0 188 55 0 0 0 0 0 1 0 0 0 0
80 57.0 48.0 10.0 23.0 82 112 56 0 0 1 0 0 0 0 0 0 1
81 56.0 37.0 10.0 6.0 0 198 36 1 0 0 0 1 0 0 0 1 0
82 55.0 54.0 10.0 26.0 0 192 56 1 0 1 0 0 1 0 0 1 0
83 15.0 47.0 10.0 16.0 0 196 54 0 0 1 0 1 0 0 0 0 0
84 14.0 37.0 10.0 11.0 0 198 44 1 0 1 0 0 0 0 1 0 0
85 11.0 31.0 10.0 7.0 91 121 53 0 1 0 0 0 0 1 0 0 0
86 16.0 22.0 10.0 41.0 0 196 68 0 0 1 1 0 1 0 0 0 1
87 4.0 18.0 10.0 35.0 0 184 5 1 0 0 1 0 0 1 0 0 0
88 28.0 18.0 10.0 26.0 83 113 58 0 0 0 0 0 0 1 0 0 0
89 26.0 52.0 10.0 9.0 0 200 44 0 1 0 0 0 1 0 0 0 0
90 26.0 35.0 10.0 15.0 0 211 31 0 1 0 0 1 0 0 0 0 1
91 31.0 67.0 10.0 3.0 0 187 54 0 1 1 0 0 0 1 1 0 0
92 15.0 19.0 10.0 1.0 0 194 33 0 0 0 0 1 0 0 0 0 0
93 22.0 22.0 10.0 2.0 18 48 21 0 0 1 0 0 0 1 0 1 0
94 18.0 24.0 10.0 22.0 0 199 97 1 0 1 1 0 0 0 0 0 1
95 26.0 27.0 10.0 27.0 0 207 28 0 1 1 0 0 0 0 0 0 0
96 25.0 24.0 10.0 20.0 0 205 6 0 0 0 0 0 0 0 0 1 0
97 22.0 27.0 10.0 11.0 0 204 18 0 0 0 0 0 0 0 0 0 1
98 25.0 21.0 10.0 12.0 0 202 80 0 0 1 0 1 0 0 1 1 0
99 19.0 21.0 10.0 10.0 0 198 9 0 0 0 0 0 1 0 0 0 0
100 20.0 26.0 10.0 9.0 73 103 91 1 1 0 0 0 0 1 0 0 0
101 18.0 18.0 10.0 17.0 165 195 87 0 0 0 0 0 0 0 0 1 0